# Node Net
3598   1
 33   1
 54   1
3564   1
  3   2
121   2
3563   2
1380   3
  7   3
 26   3
3060   4
3546   4
541   4
 29   5
1320   5
 58   5
3241   6
3001   6
3581   6
2701   7
840   7
1321   8
 56   8
361   9
3420   9
3559  10
2641  10
 61  11
300  11
2401  12
2400  12
1440  13
3300  13
3421  14
3579  14
